========================================================== 
File name: C:\DEGR\assets\definitions\MSRCPSP_Gen\200_10_64_10_A.def
Creation date: Wed May 03 10:47:07 CEST 2023
Website: http://imopse.ii.pwr.edu.pl/ 
Reference: 
Myszkowski P. B., Skowronski M. E., Olech L., Oslizlo K., 
Hybrid Ant Colony Optimization in solving Multi-Skill Resource-Constrained Project Scheduling Problem, 
Soft Computing, DOI: DOI 10.1007/s00500-014-1455-x 
========================================================== 
General characteristics: 
Tasks: 200
Resources: 10
Precedence relations: 64
Number of skill types: 10
========================================================== 
ResourceID 	 Salary 	 Skills 
1	 	 	10.4	 	 Q7: 1 	  Q9: 0 	  Q5: 0 	  Q2: 0 	  Q1: 3 	 
2	 	 	79.1	 	 Q6: 2 	  Q8: 0 	  Q1: 2 	  Q5: 0 	  Q4: 0 	 
3	 	 	60.5	 	 Q1: 2 	  Q3: 2 	  Q5: 0 	  Q6: 1 	  Q2: 3 	  Q7: 0 	  Q0: 2 	  Q8: 1 	  Q4: 0 	 
4	 	 	56.2	 	 Q9: 2 	  Q8: 3 	  Q7: 3 	  Q4: 1 	  Q5: 0 	  Q6: 1 	  Q3: 2 	 
5	 	 	78.8	 	 Q7: 2 	  Q8: 3 	  Q2: 1 	  Q0: 3 	  Q4: 0 	  Q1: 3 	  Q5: 2 	  Q6: 3 	  Q3: 2 	 
6	 	 	12.3	 	 Q4: 1 	  Q8: 1 	  Q2: 3 	  Q3: 2 	  Q6: 3 	  Q7: 2 	 
7	 	 	27.9	 	 Q6: 0 	 
8	 	 	95.3	 	 Q4: 0 	  Q2: 0 	 
9	 	 	81.1	 	 Q5: 2 	  Q1: 3 	 
10	 	 	78.1	 	 Q2: 1 	  Q1: 0 	  Q3: 1 	  Q5: 1 	  Q7: 2 	 
========================================================== 
TaskID 	 Duration 	 Skill 	 Predecessor IDs 
1	38	Q8:	0
2	32	Q2:	0
3	26	Q9:	2
4	16	Q3:	2
5	26	Q1:	2
6	15	Q1:	2
7	11	Q0:	3
8	18	Q8:	3
9	18	Q8:	1
10	21	Q6:	1
11	38	Q2:	1
12	18	Q8:	1
13	39	Q7:	3
14	37	Q4:	1
15	24	Q8:	3
16	33	Q0:	3
17	23	Q6:	2
18	10	Q2:	1
19	28	Q9:	2
20	11	Q2:	3
21	17	Q8:	1
22	25	Q8:	1
23	25	Q7:	3
24	39	Q0:	2
25	38	Q7:	2
26	20	Q0:	3
27	11	Q3:	2
28	38	Q6:	0
29	32	Q1:	2
30	33	Q4:	0
31	29	Q8:	3
32	13	Q4:	1
33	33	Q8:	0
34	28	Q3:	2
35	36	Q3:	1	23
36	34	Q3:	1
37	36	Q2:	1
38	18	Q5:	2
39	22	Q9:	2
40	35	Q6:	0	8
41	25	Q0:	2
42	39	Q0:	2
43	21	Q8:	0	16
44	23	Q1:	3
45	21	Q6:	2
46	19	Q5:	0
47	38	Q8:	3	13
48	29	Q7:	0
49	35	Q5:	0	10
50	27	Q4:	1
51	20	Q5:	2
52	33	Q9:	0
53	9	Q8:	1	14
54	33	Q5:	2	22
55	11	Q6:	3
56	18	Q7:	0
57	19	Q8:	0
58	22	Q9:	0
59	10	Q6:	0	10
60	28	Q1:	3	18
61	9	Q1:	3
62	19	Q4:	1	50
63	29	Q3:	1
64	20	Q5:	2
65	27	Q9:	0
66	28	Q6:	3	11
67	30	Q2:	3
68	32	Q6:	3
69	25	Q9:	0
70	37	Q7:	3
71	32	Q5:	0
72	23	Q5:	0
73	13	Q7:	0	13
74	29	Q7:	1
75	26	Q7:	3
76	38	Q6:	1
77	15	Q8:	1	35
78	16	Q1:	3
79	38	Q6:	2	77
80	36	Q9:	0
81	20	Q9:	2
82	33	Q1:	0
83	13	Q6:	3
84	22	Q2:	0
85	32	Q4:	0
86	36	Q7:	2
87	10	Q0:	2
88	28	Q0:	2
89	9	Q6:	0
90	15	Q7:	3
91	37	Q2:	0	75
92	28	Q8:	3
93	11	Q3:	2	67
94	24	Q6:	3	20
95	40	Q8:	3	51
96	23	Q3:	1
97	10	Q1:	0	34
98	11	Q3:	1	45
99	17	Q0:	2
100	23	Q1:	0
101	24	Q0:	2
102	20	Q9:	2
103	28	Q5:	1
104	16	Q8:	1
105	28	Q2:	0
106	25	Q2:	3	41	103
107	36	Q0:	3	85
108	33	Q6:	2
109	14	Q5:	2
110	34	Q8:	1
111	13	Q8:	0
112	22	Q6:	0	2
113	39	Q7:	3
114	30	Q5:	2
115	28	Q8:	3
116	38	Q1:	2	49	105
117	23	Q4:	1
118	22	Q6:	2
119	37	Q2:	3
120	22	Q7:	0
121	33	Q7:	1
122	20	Q1:	3
123	23	Q3:	2
124	16	Q6:	2
125	11	Q8:	0
126	24	Q5:	1
127	13	Q0:	3
128	40	Q6:	3	93
129	22	Q4:	1
130	9	Q6:	3	75
131	38	Q1:	0	115
132	33	Q8:	3
133	17	Q7:	2	40	120
134	18	Q1:	3	88	54
135	21	Q7:	3
136	36	Q6:	1	135	86
137	30	Q3:	2	82
138	17	Q3:	2
139	33	Q1:	3
140	16	Q1:	3
141	14	Q2:	3
142	36	Q8:	0	59	56
143	21	Q8:	3	39
144	31	Q0:	3
145	14	Q6:	1	25
146	34	Q7:	0
147	14	Q5:	0
148	28	Q9:	2
149	19	Q2:	0
150	16	Q2:	0
151	10	Q3:	1	41
152	17	Q2:	1
153	26	Q6:	2
154	23	Q9:	0
155	28	Q6:	2
156	15	Q4:	0	88
157	37	Q7:	0
158	32	Q6:	3
159	18	Q9:	0
160	18	Q1:	0
161	20	Q0:	2
162	19	Q5:	0	19
163	12	Q3:	2	34
164	16	Q1:	3
165	37	Q8:	3	154
166	30	Q3:	2
167	12	Q6:	1	136
168	25	Q8:	1
169	31	Q7:	1
170	26	Q5:	2
171	28	Q9:	2
172	13	Q1:	3	147
173	10	Q5:	1
174	11	Q5:	2	140	136
175	23	Q5:	1	22
176	19	Q2:	0
177	19	Q2:	1
178	15	Q9:	2	108
179	22	Q5:	1	12
180	36	Q2:	1
181	15	Q9:	0	141
182	35	Q9:	2	38
183	10	Q6:	0
184	37	Q4:	1	150
185	11	Q9:	0	94
186	11	Q7:	0	53
187	19	Q2:	3	31
188	13	Q2:	0	71
189	9	Q1:	0	185	183
190	20	Q3:	1
191	13	Q6:	3
192	28	Q9:	2	18
193	14	Q1:	2	53
194	23	Q9:	2
195	39	Q7:	1
196	33	Q5:	1
197	29	Q7:	3
198	22	Q5:	2
199	38	Q7:	1
200	16	Q6:	3	20
========================================================== 